instances/A-n8-k3-m3-b1ampl_.txt
set K:= 1	2	3;
set C_H:= 1;
set C_S:= 2	3	4;
set C_F:= 5	6	7;
set M:= 8	9	10	11	12	13;
set L_B:= 14;
set A1:=
(0,*) 1 5 6 7 8 9 10 11 12 13 14 15
(1,*) 0 5 6 7 8 9 10 11 12 13 14 15
(5,*) 0 1 6 7 8 9 10 11 12 13 14 15
(6,*) 0 1 5 7 8 9 10 11 12 13 14 15
(7,*) 0 1 5 6 8 9 10 11 12 13 14 15
(8,*) 0 1 5 6 7 9 10 11 12 13 14 15
(9,*) 0 1 5 6 7 8 10 11 12 13 14 15
(10,*) 0 1 5 6 7 8 9 11 12 13 14 15
(11,*) 0 1 5 6 7 8 9 10 12 13 14 15
(12,*) 0 1 5 6 7 8 9 10 11 13 14 15
(13,*) 0 1 5 6 7 8 9 10 11 12 14 15
(14,*) 0 1 5 6 7 8 9 10 11 12 13 15
(15,*) 0 1 5 6 7 8 9 10 11 12 13 14
;
set A2:=
(8,*) 9
(9,*) 8
(10,*) 11
(11,*) 10
(12,*) 13
(13,*) 12
;
param BigM:=99999;
param n:= 3;
param d:=
1	13
2	12
3	12
4	10
5	6
6	9
7	26
;
param Q:=100;
param w:=
[8,*] 9 2
[9,*] 8 2
[10,*] 11 2
[11,*] 10 2
[12,*] 13 2
[13,*] 12 2
;
param V:=
[8,*] 9 92
[9,*] 8 92
[10,*] 11 86
[11,*] 10 86
[12,*] 13 82
[13,*] 12 82
;
param e:
	8	9	10	11	12	13	14:=
2		1		0		0		1		1		0		0	
3		1		0		0		0		1		0		0	
4		0		0		0		1		0		0		0	
5		0		0		1		0		0		1		0	
6		0		0		0		1		0		0		1	
7		1		0		0		1		0		0		1	
;
param p:=
1	1
2	1
3	1
;
param G:=
8	92
9	73
10	86
11	79
12	73
13	82
14	71
;
param s:=
0	0
1	10
5	10
6	10
7	10
8	10
9	10
10	10
11	10
12	10
13	10
14	10
;
param t:
	0	1	2	3	4	5	6	7	8	9	10	11	12	13	14	15:=
0	0.0	11.66	17.0	30.36	69.35	73.17	75.01	81.3	27.29	102.07	80.01	70.11	15.52	80.52	73.16	0.0
1	11.66	0.0	9.22	24.21	60.42	79.16	65.19	72.18	19.72	100.69	86.7	60.83	11.18	84.59	64.43	11.66
2	17.0	9.22	0.0	15.0	52.47	73.98	58.01	64.38	10.77	91.81	82.0	53.15	4.47	78.06	56.34	17.0
3	30.36	24.21	15.0	0.0	40.05	68.35	47.07	52.04	5.39	77.9	77.08	41.3	14.87	69.58	43.55	30.36
4	69.35	60.42	52.47	40.05	0.0	91.93	10.0	12.0	42.11	70.03	101.14	3.16	54.08	86.27	4.31	69.35
5	73.17	79.16	73.98	68.35	91.93	0.0	101.86	100.66	72.42	62.13	9.22	94.79	69.72	15.81	92.74	73.17
6	75.01	65.19	58.01	47.07	10.0	101.86	0.0	10.0	48.26	78.41	111.07	7.07	60.21	96.26	10.74	75.01
7	81.3	72.18	64.38	52.04	12.0	100.66	10.0	0.0	54.08	71.39	109.79	11.4	66.07	93.61	8.8	81.3
8	27.29	19.72	10.77	5.39	42.11	72.42	48.26	54.08	0.0	83.24	80.99	43.0	12.0	74.33	45.87	27.29
9	102.07	100.69	91.81	77.9	70.03	62.13	78.41	71.39	83.24	0.0	68.07	73.06	89.63	47.01	67.77	102.07
10	80.01	86.7	82.0	77.08	101.14	9.22	111.07	109.79	80.99	68.07	0.0	104.0	77.67	21.1	101.91	80.01
11	70.11	60.83	53.15	41.3	3.16	94.79	7.07	11.4	43.0	73.06	104.0	0.0	55.0	89.31	6.02	70.11
12	15.52	11.18	4.47	14.87	54.08	69.72	60.21	66.07	12.0	89.63	77.67	55.0	0.0	74.17	57.8	15.52
13	80.52	84.59	78.06	69.58	86.27	15.81	96.26	93.61	74.33	47.01	21.1	89.31	74.17	0.0	86.37	80.52
14	73.16	64.43	56.34	43.55	4.31	92.74	10.74	8.8	45.87	67.77	101.91	6.02	57.8	86.37	0.0	73.16
;
